83 83
6 64
37 51
22 83
40 27
13 14
10 62
32 39
7 9
2 26
1 82
16 13
31 65
5 74
25 45
15 37
3 1
39 41
33 60
32 8
8 55
33 76
2 16
38 21
24 6
35 24
39 77
7 48
18 18
19 70
35 4
1 44
30 20
1 19
14 32
26 10
12 17
37 61
31 43
30 71
10 42
20 29
21 72
28 47
24 66
20 31
34 49
41 50
23 38
19 36
18 46
40 67
21 52
11 56
27 59
23 28
9 2
28 11
5 30
25 68
13 79
22 81
41 80
26 33
17 58
27 57
3 15
29 35
4 69
36 34
34 12
6 78
11 23
16 63
8 7
12 73
14 53
15 25
29 3
9 5
36 40
38 22
17 75
4 54
